NAME: andre8
TYPE: TSP
COMMENT: 8 cidades do trabalho do André
DIMENSION: 8
EDGE_WEIGHT_TYPE: EXPLICIT
EDGE_WEIGHT_FORMAT: FULL_MATRIX 
DISPLAY_DATA_TYPE: TWOD_DISPLAY
EDGE_WEIGHT_SECTION
 0 42 61 30 17 82 31 11
42  0 14 87 28 70 19 33
61 14  0 20 81 21  8 29
30 87 20  0 34 33 91 10
17 28 81 34  0 41 34 82
82 70 21 33 41  0 19 32
31 19  8 91 34 19  0 59
11 33 29 10 82 32 59 0
DISPLAY_DATA_SECTION
   1    1.0  1.0
   2    2.0  2.0
   3    3.0  3.0
   4    4.0  4.0
   5    5.0  5.0
   6    6.0  6.0
   7    7.0  7.0
   8    8.0  8.0
EOF